32      6       
10      10      12      11      20      10
0       0       0       0       0       0	0	4       2       3       4       5       
8       0       0       9       0       10	0	1       15      
2       10      0       0       0       12	0	1       9       
4       0       0       5       0       0	2	1       6       
5       0       0       2       0       0	2	1       7       
3       0       0       3       0       4	0	1       8       
5       0       0       0       7       5	0	1       13      
10      0       2       0       0       6	0	1       12      
7       0       3       0       0       0	5	1       10      
9       0       0       0       1       8	0	1       11      
6       0       3       0       0       10	0	1       16      
9       0       0       0       9       5	0	2       14      18      
10      0       8       0       0       0	2	1       14      
2       0       0       0       2       2	0	1       17      
8       0       0       0       5       3	0	1       23      
5       0       0       0       2       1	0	1       19      
10      0       0       0       9       0	2	1       27      
2       0       0       10      0       5	0	1       22      
7       4       0       0       0       0	5	1       20      
10      0       7       0       0       8	0	1       21      
2       0       0       0       2       12	0	1       28      
10      0       0       0       3       0	2	1       25      
5       0       0       0       5       0	3	1       24      
3       0       0       6       0       4	0	1       31      
4       0       2       0       0       0	4	1       26      
4       0       2       0       0       12	0	1       30      
6       0       0       3       0       0	1	1       29      
4       0       0       8       0       5	0	1       32      
10      0       0       0       1       0	3	1       32      
1       0       0       3       0       1	0	1       32      
5       0       0       0       1       1	0	1       32      
0       0       0       0       0       0	0	0       
